* ENCODING=ISO-8859-1
NAME          CPLEX
ROWS
 N  obj1    
 G  c1      
 G  c2      
 G  c3      
 G  c4      
 G  c5      
 G  c6      
 G  c7      
 G  c8      
 G  c9      
 G  c10     
 G  c11     
 G  c12     
 G  c13     
 G  c14     
 G  c15     
 G  c16     
 G  c17     
 G  c18     
 G  c19     
 G  c20     
 G  c21     
 G  c22     
 G  c23     
 G  c24     
 G  c25     
 G  c26     
 G  c27     
 G  c28     
 G  c29     
 G  c30     
 G  c31     
 G  c32     
 G  c33     
 G  c34     
 G  c35     
 G  c36     
 G  c37     
 G  c38     
 G  c39     
 G  c40     
 G  c41     
 G  c42     
 G  c43     
 G  c44     
 G  c45     
 G  c46     
 G  c47     
 G  c48     
 G  c49     
 G  c50     
 G  c51     
 G  c52     
 G  c53     
 G  c54     
 G  c55     
 G  c56     
 G  c57     
 G  c58     
 G  c59     
 G  c60     
 G  c61     
 G  c62     
 G  c63     
 G  c64     
 G  c65     
 G  c66     
 G  c67     
 G  c68     
 G  c69     
 G  c70     
COLUMNS
    MARK0000  'MARKER'                 'INTORG'
    x1        obj1                            1
    x1        c1                            960
    x1        c10                           556
    x1        c38                           568
    x1        c53                           987
    x1        c57                           909
    x2        obj1                            1
    x2        c7                            421
    x2        c16                           302
    x2        c34                           272
    x2        c47                           937
    x2        c55                           137
    x3        obj1                            1
    x3        c6                            290
    x3        c10                           347
    x3        c27                           241
    x3        c42                           278
    x3        c44                           298
    x3        c50                           793
    x3        c53                           437
    x4        obj1                            1
    x4        c5                            462
    x4        c15                           880
    x4        c18                           842
    x4        c20                           105
    x4        c24                           461
    x4        c27                           578
    x4        c28                           589
    x4        c33                           699
    x4        c40                           372
    x4        c56                           957
    x4        c66                           261
    x5        obj1                            1
    x5        c14                           763
    x5        c26                           156
    x5        c38                           121
    x5        c46                           494
    x6        obj1                            1
    x6        c34                           346
    x6        c67                           848
    x7        obj1                            1
    x7        c16                           379
    x7        c17                           788
    x7        c26                           989
    x7        c35                           736
    x7        c36                           303
    x7        c51                           532
    x8        obj1                            1
    x8        c3                            179
    x8        c11                           826
    x8        c40                           655
    x8        c46                           424
    x8        c47                           202
    x8        c53                           139
    x8        c54                           771
    x9        obj1                            1
    x9        c25                           157
    x9        c54                           178
    x10       obj1                            1
    x10       c4                            832
    x10       c11                           451
    x10       c40                           883
    x10       c44                           970
    x11       obj1                            1
    x11       c21                           652
    x11       c30                           142
    x11       c33                           762
    x11       c40                           686
    x11       c47                           550
    x11       c63                           655
    x11       c69                           503
    x12       obj1                            1
    x12       c4                            553
    x12       c5                            803
    x12       c8                            556
    x12       c12                           231
    x12       c14                           905
    x12       c15                           875
    x12       c20                           142
    x12       c25                           105
    x12       c33                           200
    x12       c38                           906
    x12       c48                           804
    x12       c55                           282
    x12       c56                           157
    x13       obj1                            1
    x13       c15                           390
    x13       c20                           720
    x13       c26                           400
    x13       c54                           171
    x13       c69                           220
    x13       c70                           339
    x14       obj1                            1
    x14       c1                            459
    x14       c20                           829
    x14       c31                           844
    x14       c39                           754
    x14       c41                           201
    x14       c42                           169
    x14       c46                           344
    x14       c47                           572
    x14       c54                           323
    x14       c55                           575
    x15       obj1                            1
    x15       c4                            238
    x15       c7                            511
    x15       c25                           175
    x15       c29                           230
    x15       c32                           837
    x15       c49                           278
    x15       c50                           238
    x15       c60                           430
    x15       c65                           987
    x16       obj1                            1
    x16       c6                            401
    x16       c12                           519
    x16       c18                           117
    x16       c19                           254
    x16       c29                           358
    x16       c36                           822
    x16       c40                           126
    x16       c54                           304
    x17       obj1                            1
    x17       c3                            442
    x17       c7                            553
    x17       c8                            628
    x17       c18                           246
    x17       c27                           328
    x17       c39                           722
    x17       c41                           840
    x17       c42                           470
    x17       c44                           479
    x17       c45                           670
    x17       c54                           551
    x17       c62                           112
    x18       obj1                            1
    x18       c8                            371
    x18       c26                           672
    x18       c55                           189
    x18       c60                           572
    x18       c67                           670
    x19       obj1                            1
    x19       c25                           150
    x19       c34                           469
    x19       c36                           595
    x19       c44                           101
    x19       c65                           128
    x19       c69                           865
    x20       obj1                            1
    x20       c2                            205
    x20       c3                            877
    x20       c8                            194
    x20       c16                           710
    x20       c29                           896
    x20       c47                           502
    x20       c52                           685
    x20       c70                           363
    x21       obj1                            1
    x21       c2                            739
    x21       c27                           792
    x21       c48                           541
    x21       c64                           785
    x22       obj1                            1
    x22       c1                            142
    x22       c15                           366
    x22       c28                           198
    x22       c61                           805
    x22       c62                           804
    x23       obj1                            1
    x23       c13                           357
    x23       c23                           793
    x23       c30                           791
    x24       obj1                            1
    x24       c21                           197
    x24       c56                           449
    x25       obj1                            1
    x25       c13                           452
    x25       c22                           786
    x25       c27                           777
    x25       c34                           889
    x25       c61                           294
    x25       c68                           272
    x26       obj1                            1
    x26       c8                            316
    x26       c24                           871
    x26       c36                           569
    x26       c37                           844
    x26       c45                           817
    x26       c52                           986
    x26       c59                           871
    x26       c60                           910
    x26       c66                           481
    x27       obj1                            1
    x27       c6                            883
    x27       c14                           611
    x27       c28                           251
    x27       c30                           854
    x27       c31                           335
    x27       c49                           545
    x27       c59                           365
    x28       obj1                            1
    x28       c2                            353
    x28       c6                            533
    x28       c20                           384
    x28       c22                           115
    x28       c36                           658
    x28       c43                           435
    x29       obj1                            1
    x29       c27                           536
    x29       c45                           767
    x29       c46                           155
    x29       c58                           321
    x30       obj1                            1
    x30       c14                           240
    x30       c29                           363
    x30       c53                           703
    x30       c59                           469
    x30       c60                           600
    x30       c67                           157
    x30       c70                           776
    x31       obj1                            1
    x31       c9                            433
    x31       c13                           872
    x31       c17                           296
    x31       c21                           634
    x31       c26                           460
    x31       c29                           198
    x31       c48                           816
    x31       c58                           553
    x32       obj1                            1
    x32       c11                           400
    x32       c34                           605
    x32       c36                           639
    x32       c55                           305
    x32       c60                           525
    x32       c63                           596
    x32       c70                           825
    x33       obj1                            1
    x33       c10                           373
    x33       c15                           386
    x33       c23                           373
    x33       c27                           885
    x33       c38                           697
    x33       c46                           153
    x33       c66                           289
    x34       obj1                            1
    x34       c10                           209
    x34       c18                           269
    x34       c20                           880
    x34       c21                           297
    x34       c24                           832
    x34       c39                           298
    x34       c51                           486
    x34       c62                           813
    x34       c67                           197
    x34       c68                           752
    x35       obj1                            1
    x35       c1                            255
    x35       c18                           756
    x35       c42                           471
    x35       c46                           621
    x35       c49                           705
    x35       c63                           107
    x36       obj1                            1
    x36       c4                            923
    x36       c15                           454
    x36       c29                           101
    x36       c40                           541
    x36       c44                           545
    x37       obj1                            1
    x37       c4                            954
    x37       c7                            223
    x37       c11                           725
    x37       c29                           793
    x37       c46                           182
    x37       c49                           413
    x37       c58                           800
    x38       obj1                            1
    x38       c9                            419
    x38       c16                           608
    x38       c28                           521
    x38       c35                           941
    x38       c37                           263
    x39       obj1                            1
    x39       c23                           614
    x39       c25                           785
    x39       c41                           273
    x39       c49                           836
    x39       c56                           154
    x39       c64                           521
    x39       c65                           462
    x40       obj1                            1
    x40       c3                            890
    x40       c16                           597
    x40       c28                           802
    x40       c62                           390
    x41       obj1                            1
    x41       c11                           821
    x41       c24                           534
    x41       c39                           427
    x41       c43                           683
    x41       c46                           927
    x41       c67                           703
    x41       c68                           627
    x41       c70                           724
    x42       obj1                            1
    x42       c3                            602
    x42       c15                           959
    x42       c21                           916
    x42       c25                           769
    x42       c31                           442
    x42       c34                           356
    x42       c37                           457
    x43       obj1                            1
    x43       c11                           890
    x43       c15                           888
    x43       c39                           815
    x43       c42                           750
    x43       c48                           993
    x43       c53                           505
    x44       obj1                            1
    x44       c30                           778
    x44       c48                           680
    x44       c50                           878
    x44       c54                           785
    x44       c70                           915
    x45       obj1                            1
    x45       c17                           141
    x45       c20                           325
    x45       c39                           312
    x45       c55                           259
    x45       c56                           111
    x45       c62                           356
    x45       c68                           706
    x46       obj1                            1
    x46       c12                           815
    x46       c24                           485
    x46       c30                           885
    x46       c31                           216
    x46       c41                           118
    x46       c57                           816
    x46       c59                           810
    x46       c61                           784
    x47       obj1                            1
    x47       c12                           640
    x47       c17                           616
    x47       c22                           740
    x47       c26                           535
    x47       c29                           961
    x47       c30                           265
    x47       c43                           481
    x47       c53                           580
    x47       c62                           940
    x47       c69                           278
    x47       c70                           142
    x48       obj1                            1
    x48       c2                            948
    x48       c8                            195
    x48       c14                           978
    x48       c21                           972
    x48       c25                           606
    x48       c39                           128
    x48       c55                           285
    x48       c58                           582
    x48       c65                           647
    x48       c69                           816
    x49       obj1                            1
    x49       c19                           477
    x49       c20                           768
    x49       c24                           722
    x49       c41                           528
    x49       c66                           256
    x50       obj1                            1
    x50       c5                            989
    x50       c12                           414
    x50       c16                           434
    x50       c36                           742
    x50       c40                           996
    x50       c60                           800
    x50       c69                           498
    x51       obj1                            1
    x51       c2                            233
    x51       c3                            656
    x51       c5                            889
    x51       c9                            400
    x51       c11                           799
    x51       c24                           475
    x51       c25                           792
    x51       c35                           467
    x51       c46                           332
    x52       obj1                            1
    x52       c16                           147
    x52       c28                           133
    x52       c32                           449
    x52       c33                           410
    x52       c43                           653
    x52       c48                           208
    x52       c55                           725
    x52       c56                           409
    x52       c61                           598
    x53       obj1                            1
    x53       c7                            113
    x53       c17                           359
    x53       c29                           512
    x53       c40                           765
    x53       c50                           396
    x53       c56                           806
    x53       c57                           778
    x53       c63                           816
    x53       c66                           100
    x53       c67                           524
    x54       obj1                            1
    x54       c22                           474
    x54       c34                           371
    x54       c37                           898
    x54       c58                           590
    x54       c69                           300
    x55       obj1                            1
    x55       c17                           974
    x55       c56                           789
    x56       obj1                            1
    x56       c5                            818
    x56       c13                           329
    x56       c16                          1000
    x56       c38                           774
    x56       c42                           937
    x56       c50                           205
    x57       obj1                            1
    x57       c16                           539
    x57       c42                           954
    x57       c44                           976
    x57       c51                           546
    x57       c54                           999
    x57       c61                           295
    x57       c62                           839
    x58       obj1                            1
    x58       c3                            217
    x58       c9                            865
    x58       c17                           575
    x58       c19                           914
    x58       c21                           315
    x58       c28                           565
    x58       c41                           353
    x58       c48                           744
    x58       c59                           568
    x58       c62                           667
    x59       obj1                            1
    x59       c20                           491
    x59       c21                           653
    x59       c23                           635
    x59       c26                           958
    x59       c45                           247
    x59       c58                           934
    x60       obj1                            1
    x60       c15                           883
    x60       c16                           710
    x60       c26                           629
    x60       c27                           574
    x60       c29                           143
    x60       c39                           883
    x60       c44                           908
    x60       c51                           899
    x60       c52                           987
    x60       c61                           728
    x60       c70                           307
    x61       obj1                            1
    x61       c10                           617
    x61       c14                           194
    x61       c19                           734
    x61       c25                           694
    x61       c32                           300
    x61       c36                           492
    x61       c50                           645
    x61       c52                           707
    x62       obj1                            1
    x62       c3                            591
    x62       c44                           390
    x62       c57                           305
    x62       c61                           112
    x63       obj1                            1
    x63       c3                            607
    x63       c4                            560
    x63       c5                            789
    x63       c14                           939
    x63       c21                           812
    x63       c64                           360
    x64       obj1                            1
    x64       c10                           674
    x64       c12                           231
    x64       c13                           304
    x64       c14                           331
    x64       c15                           158
    x64       c19                           464
    x64       c38                           865
    x64       c59                           802
    x64       c62                           891
    x64       c64                           101
    x64       c66                           396
    x64       c67                           929
    x65       obj1                            1
    x65       c28                           992
    x65       c34                           138
    x65       c40                           398
    x65       c41                           865
    x65       c42                           628
    x65       c45                           616
    x65       c55                           805
    x65       c60                           831
    x65       c67                           782
    x66       obj1                            1
    x66       c26                           197
    x66       c46                           768
    x66       c66                           439
    x67       obj1                            1
    x68       obj1                            1
    x68       c5                            156
    x68       c13                           800
    x68       c25                           830
    x68       c32                           189
    x68       c35                           760
    x68       c37                           833
    x68       c42                           405
    x68       c61                           891
    x68       c65                           842
    x69       obj1                            1
    x69       c10                           270
    x69       c12                           621
    x69       c13                           300
    x69       c14                           438
    x69       c44                           574
    x69       c51                           502
    x69       c62                           203
    x70       obj1                            1
    x70       c7                            288
    x70       c28                           979
    x70       c31                           328
    x70       c39                           891
    x70       c53                           277
    x70       c55                           294
    MARK0001  'MARKER'                 'INTEND'
RHS
    rhs       c1                            908
    rhs       c2                           1239
    rhs       c3                           2531
    rhs       c4                           2030
    rhs       c5                           2453
    rhs       c6                           1054
    rhs       c7                           1055
    rhs       c8                           1130
    rhs       c9                           1059
    rhs       c10                          1523
    rhs       c11                          2456
    rhs       c12                          1736
    rhs       c13                          1707
    rhs       c14                          2700
    rhs       c15                          3120
    rhs       c16                          2713
    rhs       c17                          1875
    rhs       c18                          1115
    rhs       c19                          1422
    rhs       c20                          2322
    rhs       c21                          2724
    rhs       c22                          1058
    rhs       c23                          1208
    rhs       c24                          2190
    rhs       c25                          2532
    rhs       c26                          2498
    rhs       c27                          2356
    rhs       c28                          2515
    rhs       c29                          2278
    rhs       c30                          1858
    rhs       c31                          1083
    rhs       c32                           888
    rhs       c33                          1036
    rhs       c34                          1723
    rhs       c35                          1452
    rhs       c36                          2410
    rhs       c37                          1648
    rhs       c38                          1966
    rhs       c39                          2615
    rhs       c40                          2711
    rhs       c41                          1589
    rhs       c42                          2531
    rhs       c43                          1126
    rhs       c44                          2621
    rhs       c45                          1559
    rhs       c46                          2200
    rhs       c47                          1382
    rhs       c48                          2393
    rhs       c49                          1389
    rhs       c50                          1578
    rhs       c51                          1483
    rhs       c52                          1683
    rhs       c53                          1814
    rhs       c54                          2041
    rhs       c55                          1928
    rhs       c56                          1916
    rhs       c57                          1404
    rhs       c58                          1890
    rhs       c59                          1943
    rhs       c60                          2334
    rhs       c61                          2254
    rhs       c62                          3008
    rhs       c63                          1087
    rhs       c64                           884
    rhs       c65                          1533
    rhs       c66                          1111
    rhs       c67                          2405
    rhs       c68                          1179
    rhs       c69                          1740
    rhs       c70                          2196
BOUNDS
 LI bnd       x1        0
 LI bnd       x2        0
 LI bnd       x3        0
 LI bnd       x4        0
 LI bnd       x5        0
 LI bnd       x6        0
 LI bnd       x7        0
 LI bnd       x8        0
 LI bnd       x9        0
 LI bnd       x10       0
 LI bnd       x11       0
 LI bnd       x12       0
 LI bnd       x13       0
 LI bnd       x14       0
 LI bnd       x15       0
 LI bnd       x16       0
 LI bnd       x17       0
 LI bnd       x18       0
 LI bnd       x19       0
 LI bnd       x20       0
 LI bnd       x21       0
 LI bnd       x22       0
 LI bnd       x23       0
 LI bnd       x24       0
 LI bnd       x25       0
 LI bnd       x26       0
 LI bnd       x27       0
 LI bnd       x28       0
 LI bnd       x29       0
 LI bnd       x30       0
 LI bnd       x31       0
 LI bnd       x32       0
 LI bnd       x33       0
 LI bnd       x34       0
 LI bnd       x35       0
 LI bnd       x36       0
 LI bnd       x37       0
 LI bnd       x38       0
 LI bnd       x39       0
 LI bnd       x40       0
 LI bnd       x41       0
 LI bnd       x42       0
 LI bnd       x43       0
 LI bnd       x44       0
 LI bnd       x45       0
 LI bnd       x46       0
 LI bnd       x47       0
 LI bnd       x48       0
 LI bnd       x49       0
 LI bnd       x50       0
 LI bnd       x51       0
 LI bnd       x52       0
 LI bnd       x53       0
 LI bnd       x54       0
 LI bnd       x55       0
 LI bnd       x56       0
 LI bnd       x57       0
 LI bnd       x58       0
 LI bnd       x59       0
 LI bnd       x60       0
 LI bnd       x61       0
 LI bnd       x62       0
 LI bnd       x63       0
 LI bnd       x64       0
 LI bnd       x65       0
 LI bnd       x66       0
 LI bnd       x67       0
 LI bnd       x68       0
 LI bnd       x69       0
 LI bnd       x70       0
ENDATA
